tsp_instances/TSP50/instance29.tsp
NODE_COORD_SECTION
0 55 41
1 94 46
2 60 172
3 121 69
4 180 63
5 150 57
6 175 131
7 70 157
8 68 115
9 41 103
10 170 74
11 199 197
12 102 136
13 124 88
14 145 22
15 156 42
16 2 119
17 124 185
18 193 164
19 12 76
20 87 170
21 75 159
22 154 96
23 142 23
24 110 14
25 158 187
26 134 169
27 74 110
28 96 95
29 59 93
30 85 109
31 137 89
32 9 111
33 106 3
34 61 2
35 97 27
36 146 4
37 170 145
38 100 145
39 64 66
40 26 138
41 24 69
42 65 174
43 115 104
44 172 39
45 136 50
46 80 124
47 1 42
48 155 194
49 168 46
