tsp_instances/TSP50/instance29.opt.tour
TOUR_SECTION
1
35
48
42
20
33
17
41
10
30
28
9
47
31
29
44
13
39
22
8
3
43
21
18
27
26
49
12
19
38
7
23
32
14
4
46
6
11
5
50
45
16
15
24
37
34
25
36
2
40
-1